%mem=100GB
%nprocshared=24
# B3LYP/6-31+G** nosymm

Title Card

0 1
 H 0.014638137986511 0.405466739653796 -2.09778493449762
 H 0.0682923158459365 0.602385973285139 2.21120589433908
 H 0.963334086123109 -0.872244623216987 -1.28210648206025
 H 1.14200967071131 -0.967246160383523 1.26018444766253
 H -0.922173485966027 -0.958771098440886 -1.22640699313283
 H -0.852520210636407 -0.943077119196206 1.18001615849584
 C 0.0331385512724519 -0.160644809294492 -1.09555372787341
 C -0.138901851523668 -0.1596744267717 1.16383806174323
 H -0.594196577991545 1.23785243387595 -0.196073940768838
 N -0.124353844963014 0.689156495543569 0.0484710185788572
 
